8 8
  0	99	1	67	2	32	3	76	4	56	5	22	6	99	7	80	
  0	32	1	21	2	79	3	42	4	17	5	12	6	66	7	24	
  0	61	1	66	2	94	3	10	4	92	5	48	6	60	7	78	
  0	25	1	3	2	64	3	64	4	63	5	49	6	64	7	58	
  0	11	1	73	2	10	3	93	4	13	5	25	6	45	7	67	
  0	32	1	40	2	73	3	7	4	6	5	87	6	2	7	4	
  0	87	1	48	2	56	3	54	4	52	5	73	6	28	7	65	
  0	48	1	4	2	39	3	48	4	99	5	3	6	63	7	88	
